RT is False
Default write of storage_offers_DA.csv just to have a file (but constraint should be inactive)
Reading model...
...model read.
creating competitive generators file...
...competitive generators recorded.
Loading data...
.. day-ahead data with real-time VRE data read.
Compiling instance...
...instance created.
Creating Offer Mitigation (model will solve as dispatch if TRUE)...
...storage offer mitigation file created
Converting model to MPEC...
...converted
NOTE: initial MIP solve with only storage competitive to get feasible solution
Solving...

Welcome to IBM(R) ILOG(R) CPLEX(R) Interactive Optimizer 12.9.0.0
  with Simplex, Mixed Integer & Barrier Optimizers
5725-A06 5725-A29 5724-Y48 5724-Y49 5724-Y54 5724-Y55 5655-Y21
Copyright IBM Corp. 1988, 2019.  All Rights Reserved.

Type 'help' for a list of available commands.
Type 'help' followed by a command name for more
information on commands.

CPLEX> Logfile 'cplex.log' closed.
Logfile 'C:\Users\llavin\Desktop\test826\logs\tmpcrp4ftk4.cplex.log' open.
CPLEX> New value for parallel optimization mode: -1
CPLEX> New value for mixed integer optimality gap tolerance: 0.01
CPLEX> New value for integrality tolerance: 1e-09
CPLEX> New value for feasibility tolerance: 0.001
CPLEX> New value for deterministic time limit in ticks: 75000
CPLEX> Problem 'C:\Users\llavin\Desktop\test826\logs\tmps07jekf8.pyomo.lp' read.
Read time = 0.23 sec. (14.73 ticks)
CPLEX> Problem name         : C:\Users\llavin\Desktop\test826\logs\tmps07jekf8.pyomo.lp
Objective sense      : Maximize
Variables            :   53805  [Nneg: 1,  Box: 22000,  Free: 4464,
                                 Binary: 27340]
Objective nonzeros   :    9022
Linear constraints   :  123205  [Less: 41346,  Greater: 59096,  Equal: 22763]
  Nonzeros           :  291746
  RHS nonzeros       :   67484

Variables            : Min LB: -5000.000        Max UB: 1000000.       
Objective nonzeros   : Min   : 0.01666667       Max   : 2500.000       
Linear constraints   :
  Nonzeros           : Min   : 0.01666667       Max   : 1000000.       
  RHS nonzeros       : Min   : 0.01666667       Max   : 1000000.       
CPLEX> CPXPARAM_Parallel                                -1
CPXPARAM_Simplex_Tolerances_Feasibility          0.001
CPXPARAM_DetTimeLimit                            75000
CPXPARAM_MIP_Tolerances_MIPGap                   0.01
CPXPARAM_MIP_Tolerances_Integrality              1.0000000000000001e-09
Tried aggregator 3 times.
MIP Presolve eliminated 88733 rows and 19054 columns.
MIP Presolve added 3361 rows and 0 columns.
MIP Presolve modified 24856 coefficients.
Aggregator did 12973 substitutions.
Reduced MIP has 24860 rows, 21219 columns, and 70915 nonzeros.
Reduced MIP has 8388 binaries, 0 generals, 0 SOSs, and 0 indicators.
Presolve time = 0.28 sec. (173.53 ticks)
Probing fixed 396 vars, tightened 2831 bounds.
Probing time = 1.20 sec. (885.17 ticks)
Tried aggregator 2 times.
MIP Presolve eliminated 888 rows and 794 columns.
MIP Presolve modified 2206 coefficients.
Aggregator did 41 substitutions.
Reduced MIP has 23931 rows, 20384 columns, and 68213 nonzeros.
Reduced MIP has 7992 binaries, 0 generals, 0 SOSs, and 0 indicators.
Presolve time = 0.09 sec. (68.60 ticks)
Probing time = 0.03 sec. (15.76 ticks)
Clique table members: 6497.
MIP emphasis: balance optimality and feasibility.
MIP search method: dynamic search.
Parallel mode: opportunistic, using up to 32 threads.
Root relaxation solution time = 0.50 sec. (684.91 ticks)

        Nodes                                         Cuts/
   Node  Left     Objective  IInf  Best Integer    Best Bound    ItCnt     Gap

      0     0     3727.1428   656                   3727.1428     6847         
      0     0     3725.0803    13                    Cuts: 18     6859         
      0     0     3720.3019    12                     Cuts: 5     6865         
*     0+    0                         3664.9071     3720.3019             1.51%

Flow cuts applied:  15
Mixed integer rounding cuts applied:  2
Gomory fractional cuts applied:  5

Root node processing (before b&c):
  Real time             =    3.80 sec. (2922.50 ticks)
Parallel b&c, 32 threads:
  Real time             =    0.00 sec. (0.00 ticks)
  Sync time (average)   =    0.00 sec.
  Wait time (average)   =    0.00 sec.
                          ------------
Total (root+branch&cut) =    3.80 sec. (2922.50 ticks)

Solution pool: 1 solution saved.

MIP - Integer optimal, tolerance (0.01/1e-06):  Objective =  3.6649071406e+03
Current MIP best bound =  3.6847194543e+03 (gap = 19.8123, 0.54%)
Solution time =    3.81 sec.  Iterations = 6866  Nodes = 0 (1)
Deterministic time = 2922.65 ticks  (766.70 ticks/sec)

CPLEX> Incumbent solution written to file 'C:\Users\llavin\Desktop\test826\logs\tmp5okpliez.cplex.sol'.
CPLEX> NOTE: no warmstart specified for MIP iteration, default behavior is true
NOTE: resolving with all competitive generators using storage-only solution to warmstart
Solving...

Welcome to IBM(R) ILOG(R) CPLEX(R) Interactive Optimizer 12.9.0.0
  with Simplex, Mixed Integer & Barrier Optimizers
5725-A06 5725-A29 5724-Y48 5724-Y49 5724-Y54 5724-Y55 5655-Y21
Copyright IBM Corp. 1988, 2019.  All Rights Reserved.

Type 'help' for a list of available commands.
Type 'help' followed by a command name for more
information on commands.

CPLEX> Logfile 'cplex.log' closed.
Logfile 'C:\Users\llavin\Desktop\test826\logs\tmp73tvf0yy.cplex.log' open.
CPLEX> New value for parallel optimization mode: -1
CPLEX> New value for mixed integer optimality gap tolerance: 0.01
CPLEX> New value for integrality tolerance: 1e-09
CPLEX> New value for feasibility tolerance: 0.001
CPLEX> New value for deterministic time limit in ticks: 75000
CPLEX> Problem 'C:\Users\llavin\Desktop\test826\logs\tmpq81b4d8m.pyomo.lp' read.
Read time = 0.25 sec. (14.75 ticks)
CPLEX> MIP start file 'C:\Users\llavin\Desktop\test826\logs\tmp6exyu4ys.cplex.mst' read.
CPLEX> Problem name         : C:\Users\llavin\Desktop\test826\logs\tmpq81b4d8m.pyomo.lp
Objective sense      : Maximize
Variables            :   54525  [Nneg: 1,  Box: 22720,  Free: 4464,
                                 Binary: 27340]
Objective nonzeros   :    9742
Linear constraints   :  123205  [Less: 41346,  Greater: 59096,  Equal: 22763]
  Nonzeros           :  291746
  RHS nonzeros       :   67484

Variables            : Min LB: -5000.000        Max UB: 1000000.       
Objective nonzeros   : Min   : 0.01666667       Max   : 2500.000       
Linear constraints   :
  Nonzeros           : Min   : 0.01666667       Max   : 1000000.       
  RHS nonzeros       : Min   : 0.01666667       Max   : 1000000.       
CPLEX> CPXPARAM_Parallel                                -1
CPXPARAM_Simplex_Tolerances_Feasibility          0.001
CPXPARAM_DetTimeLimit                            75000
CPXPARAM_MIP_Tolerances_MIPGap                   0.01
CPXPARAM_MIP_Tolerances_Integrality              1.0000000000000001e-09
Warning:  No solution found from 1 MIP starts.
Retaining values of one MIP start for possible repair.
Tried aggregator 3 times.
MIP Presolve eliminated 88733 rows and 19774 columns.
MIP Presolve added 3361 rows and 0 columns.
MIP Presolve modified 24856 coefficients.
Aggregator did 12973 substitutions.
Reduced MIP has 24860 rows, 21219 columns, and 70915 nonzeros.
Reduced MIP has 8388 binaries, 0 generals, 0 SOSs, and 0 indicators.
Presolve time = 0.30 sec. (173.89 ticks)
Probing fixed 396 vars, tightened 2831 bounds.
Probing time = 1.19 sec. (885.17 ticks)
Tried aggregator 2 times.
MIP Presolve eliminated 888 rows and 794 columns.
MIP Presolve modified 2206 coefficients.
Aggregator did 41 substitutions.
Reduced MIP has 23931 rows, 20384 columns, and 68213 nonzeros.
Reduced MIP has 7992 binaries, 0 generals, 0 SOSs, and 0 indicators.
Presolve time = 0.11 sec. (68.60 ticks)
Probing time = 0.03 sec. (15.76 ticks)
Clique table members: 6497.
MIP emphasis: balance optimality and feasibility.
MIP search method: dynamic search.
Parallel mode: opportunistic, using up to 32 threads.
Root relaxation solution time = 0.50 sec. (684.91 ticks)

        Nodes                                         Cuts/
   Node  Left     Objective  IInf  Best Integer    Best Bound    ItCnt     Gap

      0     0     3727.1428   656                   3727.1428     6847         
      0     0     3725.0803    13                    Cuts: 18     6859         
      0     0     3720.3019    12                     Cuts: 5     6865         
      0     0     3720.3019    12                     Cuts: 3     6866         
Repair heuristic found nothing.
      0     3     3707.9212     9                   3720.2184     6872         
Elapsed time = 8.25 sec. (4856.88 ticks, tree = 0.02 MB, solutions = 1)
*   158+   93                         3680.6623     3684.7195             0.11%
*   158+   41                         3684.7195     3684.7195             0.00%

Flow cuts applied:  14
Mixed integer rounding cuts applied:  1
Gomory fractional cuts applied:  5

Root node processing (before b&c):
  Real time             =    7.09 sec. (4825.44 ticks)
Parallel b&c, 32 threads:
  Real time             =    1.59 sec. (224.86 ticks)
  Sync time (average)   =    0.24 sec.
  Wait time (average)   =    0.00 sec.
                          ------------
Total (root+branch&cut) =    8.69 sec. (5050.30 ticks)

Solution pool: 2 solutions saved.

MIP - Integer optimal solution:  Objective =  3.6847194543e+03
Solution time =    8.70 sec.  Iterations = 8304  Nodes = 169
Deterministic time = 5050.46 ticks  (580.31 ticks/sec)

CPLEX> Incumbent solution written to file 'C:\Users\llavin\Desktop\test826\logs\tmp28rxj0cu.cplex.sol'.
CPLEX> Exporting results... 
